# pyscf_auto input file
# TAG: TS_example
! OptTS B3LYP def2-SVP +Freq +IRC

%scf
  max_cycle 500
  conv_tol 1e-10
end

%optimizer
  steps 300
  fmax 0.02
end

%ts_quality
  expected_imaginary_count 1
  imaginary_frequency_min_abs 50.0
end

%irc
  steps 20
  step_size 0.1
  force_threshold 0.01
end

%runtime
  threads 8
  memory_gb 16
end

* xyz 0 1
O     -0.1659811139    2.0308399200   -0.0000031757
H     -2.5444712639    1.0182403326    0.6584512591
H     -1.0147968531    2.4412472248   -2.0058431625
*
